g3 1 1 0	# problem unknown
 2 0 14 0 0 	# vars, constraints, objectives, ranges, eqns
 0 13 0 0 0 0	# nonlinear constrs, objs; ccons: lin, nonlin, nd, nzlb
 0 0	# network constraints: nonlinear, linear
 0 2 0 	# nonlinear vars in constraints, objectives, both
 0 0 0 1	# linear network variables; functions; arith, flags
 0 0 0 0 0 	# discrete variables: binary, integer, nonlinear (b,c,o)
 0 20 	# nonzeros in Jacobian, obj. gradient
 0 0	# max name lengths: constraints, variables
 0 0 0 0 0	# common exprs: b,c,o,c1,o1
O0 0
o0
o54
4
o43
v0
o2
n3.0
o43
v1
o2
n9.3575
o43
o0
o16
o44
o2
n-0.003506105386402842
v1
n1
o2
n10.717
o43
o0
o16
o44
o2
n-0.013477660471708387
v1
n1
n-12.5586602313194
O1 0
o3
n1
v0
O2 0
o16
o3
n1
o5
v0
n2
O3 0
o0
o54
3
o2
n-0.013477660471708387
o2
o16
o3
n10.717
o0
o16
o44
o2
n-0.013477660471708387
v1
n1
o44
o2
n-0.013477660471708387
v1
o2
n-0.003506105386402842
o2
o16
o3
n9.3575
o0
o16
o44
o2
n-0.003506105386402842
v1
n1
o44
o2
n-0.003506105386402842
v1
o3
n3.0
v1
n8.79132625741231
O4 0
o54
3
o2
n-0.003506105386402842
o0
o2
o2
n0.003506105386402842
o3
n9.3575
o0
o16
o44
o2
n-0.003506105386402842
v1
n1
o44
o2
n-0.003506105386402842
v1
o2
o3
o2
n0.03280838115326459
o44
o2
n-0.003506105386402842
v1
o5
o0
o16
o44
o2
n-0.003506105386402842
v1
n1
n2
o44
o2
n-0.003506105386402842
v1
o2
n-0.013477660471708387
o0
o2
o2
n0.013477660471708387
o3
n10.717
o0
o16
o44
o2
n-0.013477660471708387
v1
n1
o44
o2
n-0.013477660471708387
v1
o2
o3
o2
n0.14444008727529878
o44
o2
n-0.013477660471708387
v1
o5
o0
o16
o44
o2
n-0.013477660471708387
v1
n1
n2
o44
o2
n-0.013477660471708387
v1
o16
o3
n3.0
o5
v1
n2
O5 0
o54
16
o2
o2
n0.03982797
o5
v0
n4.0
v1
o2
o2
n1.812227
v0
o5
v1
n0.223
o2
o2
n-2.537512
v0
o5
v1
n0.755
o2
o2
n-0.5333254
o5
v0
n2.0
o5
v1
n1.24
o2
o2
n0.1677031
o5
v0
n3.0
o5
v1
n0.44
o2
o2
o2
n-1.323801
v0
o5
v1
n2.0
o44
o16
o5
v0
n2.0
o2
o2
o2
n-0.6694654
o5
v0
n3.0
o5
v1
n2.2
o44
o16
o5
v0
n2.0
o2
o2
o2
n0.8072718
o5
v0
n2.0
o5
v1
n1.2
o44
o2
n-1
v0
o2
o2
o2
n-0.7740229
o5
v0
n2.0
o5
v1
n1.5
o44
o16
o5
v0
n2.0
o2
o2
o2
n-0.01843846
o5
v0
n7.0
o5
v1
n0.9
o44
o2
n-1
v0
o2
o2
o2
n1.407916
v0
o5
v1
n1.33
o44
o0
o16
o5
o0
v0
n-0.728
n2
o2
n-1.21
o5
o0
v1
n-0.943
n2
o2
o2
o2
n-0.4237082
v0
o5
v1
n1.75
o44
o0
o2
n-1.61
o5
o0
v0
n-0.87
n2
o2
n-1.37
o5
o0
v1
n-0.642
n2
o2
o2
o2
n-0.2270068
o5
v0
n3
o5
v1
n2.11
o44
o0
o2
n-1.24
o5
o0
v0
n-0.855
n2
o2
n-0.98
o5
o0
v1
n-0.59
n2
o2
o2
o2
n-0.805213
o5
v0
n3
v1
o44
o0
o2
n-9.34
o5
o0
v0
n-0.79
n2
o2
n-171
o5
o0
v1
n-1.2
n2
o2
o2
o2
n0.00994318
o5
v0
n2
o5
v1
n1.5
o44
o0
o2
n-5.78
o5
o0
v0
n-1.3
n2
o2
n-47.4
o5
o0
v1
n-1.33
n2
o2
o2
o2
n-0.008798793
v0
v1
o44
o0
o2
n-3.08
o5
o0
v0
n-0.71
n2
o2
n-15.4
o5
o0
v1
n-0.64
n2
O6 0
o54
27
o2
o2
n0.5031093
o5
v1
n0.44
o5
v0
n2.0
o2
o2
n-1.0666508
o5
v1
n1.24
v0
o2
n-2.537512
o5
v1
n0.755
o2
n1.812227
o5
v1
n0.223
o2
o2
n0.15931188
v1
o5
v0
n3.0
o16
o2
o2
o2
n-0.01843846
o5
v0
n7.0
o5
v1
n0.9
o44
o2
n-1
v0
o2
o2
n-0.12906922
o2
o44
o2
n-1
v0
o5
v1
n0.9
o5
v0
n6.0
o2
o2
n-2.0
o2
o2
o2
n-0.7740229
o5
v0
n2.0
o5
v1
n1.5
o44
o16
o5
v0
n2.0
v0
o2
o2
n-1.5480458
o2
o44
o16
o5
v0
n2.0
o5
v1
n1.5
v0
o16
o2
o2
o2
n0.8072718
o5
v0
n2.0
o5
v1
n1.2
o44
o2
n-1
v0
o2
o2
n1.6145436
o2
o44
o2
n-1
v0
o5
v1
n1.2
v0
o2
o2
n-2.0
o2
o2
o2
n-0.6694654
o5
v0
n3.0
o5
v1
n2.2
o44
o16
o5
v0
n2.0
v0
o2
o2
n-2.0083962
o2
o44
o16
o5
v0
n2.0
o5
v1
n2.2
o5
v0
n2.0
o2
o2
n-2.0
o2
o2
o2
n-1.323801
v0
o5
v1
n2.0
o44
o16
o5
v0
n2.0
v0
o2
n-1.323801
o2
o44
o16
o5
v0
n2.0
o5
v1
n2.0
o2
o2
n-6.16
o2
o2
o2
n-0.008798793
v0
v1
o44
o0
o2
n-3.08
o5
o0
v0
n-0.71
n2
o2
n-15.4
o5
o0
v1
n-0.64
n2
o0
v0
n-0.71
o2
n-0.008798793
o2
o44
o0
o2
n-3.08
o5
o0
v0
n-0.71
n2
o2
n-15.4
o5
o0
v1
n-0.64
n2
v1
o2
o2
n-11.56
o2
o2
o2
n0.00994318
o5
v0
n2
o5
v1
n1.5
o44
o0
o2
n-5.78
o5
o0
v0
n-1.3
n2
o2
n-47.4
o5
o0
v1
n-1.33
n2
o0
v0
n-1.3
o2
o2
n0.01988636
o2
o44
o0
o2
n-5.78
o5
o0
v0
n-1.3
n2
o2
n-47.4
o5
o0
v1
n-1.33
n2
o5
v1
n1.5
v0
o2
o2
n-18.68
o2
o2
o2
n-0.805213
o5
v0
n3
v1
o44
o0
o2
n-9.34
o5
o0
v0
n-0.79
n2
o2
n-171
o5
o0
v1
n-1.2
n2
o0
v0
n-0.79
o2
o2
n-2.4156389999999996
o2
o44
o0
o2
n-9.34
o5
o0
v0
n-0.79
n2
o2
n-171
o5
o0
v1
n-1.2
n2
v1
o5
v0
n2
o2
o2
n-2.48
o2
o2
o2
n-0.2270068
o5
v0
n3
o5
v1
n2.11
o44
o0
o2
n-1.24
o5
o0
v0
n-0.855
n2
o2
n-0.98
o5
o0
v1
n-0.59
n2
o0
v0
n-0.855
o2
o2
n-0.6810204
o2
o44
o0
o2
n-1.24
o5
o0
v0
n-0.855
n2
o2
n-0.98
o5
o0
v1
n-0.59
n2
o5
v1
n2.11
o5
v0
n2
o2
o2
n-3.22
o2
o2
o2
n-0.4237082
v0
o5
v1
n1.75
o44
o0
o2
n-1.61
o5
o0
v0
n-0.87
n2
o2
n-1.37
o5
o0
v1
n-0.642
n2
o0
v0
n-0.87
o2
n-0.4237082
o2
o44
o0
o2
n-1.61
o5
o0
v0
n-0.87
n2
o2
n-1.37
o5
o0
v1
n-0.642
n2
o5
v1
n1.75
o2
o2
n-2.0
o2
o2
o2
n1.407916
v0
o5
v1
n1.33
o44
o0
o16
o5
o0
v0
n-0.728
n2
o2
n-1.21
o5
o0
v1
n-0.943
n2
o0
v0
n-0.728
o2
n1.407916
o2
o44
o0
o16
o5
o0
v0
n-0.728
n2
o2
n-1.21
o5
o0
v1
n-0.943
n2
o5
v1
n1.33
O7 0
o54
41
o2
o2
n0.47793564
v1
o5
v0
n2.0
o2
n-1.0666508
o5
v1
n1.24
o2
o2
n1.0062186
o5
v1
n0.44
v0
o2
n-2.0
o2
o2
o2
n-1.323801
v0
o5
v1
n2.0
o44
o16
o5
v0
n2.0
o2
o2
n-2.0
o0
o2
o2
n-1.323801
o5
v1
n2.0
o44
o16
o5
v0
n2.0
o2
o2
o2
n-2.0
v0
o2
o2
n-1.323801
v0
o5
v1
n2.0
o44
o16
o5
v0
n2.0
v0
o2
n-1.323801
o2
o2
o2
n-2.0
v0
o44
o16
o5
v0
n2.0
o5
v1
n2.0
o2
o2
n-4.0167924
o2
o44
o16
o5
v0
n2.0
o5
v1
n2.2
v0
o2
n-2.0
o2
o2
o2
n-0.6694654
o5
v0
n3.0
o5
v1
n2.2
o44
o16
o5
v0
n2.0
o2
o2
n-2.0
o0
o2
o2
o2
n-2.0083962
o5
v0
n2.0
o5
v1
n2.2
o44
o16
o5
v0
n2.0
o2
o2
o2
n-2.0
v0
o2
o2
n-0.6694654
o5
v0
n3.0
o5
v1
n2.2
o44
o16
o5
v0
n2.0
v0
o2
o2
n-2.0083962
o2
o2
o2
n-2.0
v0
o44
o16
o5
v0
n2.0
o5
v1
n2.2
o5
v0
n2.0
o2
n1.6145436
o2
o44
o2
n-1
v0
o5
v1
n1.2
o16
o0
o2
o2
o2
n1.6145436
v0
o5
v1
n1.2
o44
o2
n-1
v0
o2
o16
o2
o2
n0.8072718
o5
v0
n2.0
o5
v1
n1.2
o44
o2
n-1
v0
o2
o2
n1.6145436
o2
o16
o44
o2
n-1
v0
o5
v1
n1.2
v0
o2
n-1.5480458
o2
o44
o16
o5
v0
n2.0
o5
v1
n1.5
o2
n-2.0
o2
o2
o2
n-0.7740229
o5
v0
n2.0
o5
v1
n1.5
o44
o16
o5
v0
n2.0
o2
o2
n-2.0
o0
o2
o2
o2
n-1.5480458
v0
o5
v1
n1.5
o44
o16
o5
v0
n2.0
o2
o2
o2
n-2.0
v0
o2
o2
n-0.7740229
o5
v0
n2.0
o5
v1
n1.5
o44
o16
o5
v0
n2.0
v0
o2
o2
n-1.5480458
o2
o2
o2
n-2.0
v0
o44
o16
o5
v0
n2.0
o5
v1
n1.5
v0
o2
o2
n-0.7744153200000001
o2
o44
o2
n-1
v0
o5
v1
n0.9
o5
v0
n5.0
o16
o0
o2
o2
o2
n-0.12906922
o5
v0
n6.0
o5
v1
n0.9
o44
o2
n-1
v0
o2
o16
o2
o2
n-0.01843846
o5
v0
n7.0
o5
v1
n0.9
o44
o2
n-1
v0
o2
o2
n-0.12906922
o2
o16
o44
o2
n-1
v0
o5
v1
n0.9
o5
v0
n6.0
o2
n-2.0
o2
o2
o2
n1.407916
v0
o5
v1
n1.33
o44
o0
o16
o5
o0
v0
n-0.728
n2
o2
n-1.21
o5
o0
v1
n-0.943
n2
o2
o2
n-2.0
o0
o2
o2
n1.407916
o5
v1
n1.33
o44
o0
o16
o5
o0
v0
n-0.728
n2
o2
n-1.21
o5
o0
v1
n-0.943
n2
o2
o2
o2
n-2.0
o0
v0
n-0.728
o2
o2
n1.407916
v0
o5
v1
n1.33
o44
o0
o16
o5
o0
v0
n-0.728
n2
o2
n-1.21
o5
o0
v1
n-0.943
n2
o0
v0
n-0.728
o2
n1.407916
o2
o2
o2
n-2.0
o0
v0
n-0.728
o44
o0
o16
o5
o0
v0
n-0.728
n2
o2
n-1.21
o5
o0
v1
n-0.943
n2
o5
v1
n1.33
o2
n-3.22
o2
o2
o2
n-0.4237082
v0
o5
v1
n1.75
o44
o0
o2
n-1.61
o5
o0
v0
n-0.87
n2
o2
n-1.37
o5
o0
v1
n-0.642
n2
o2
o2
n-3.22
o0
o2
o2
n-0.4237082
o5
v1
n1.75
o44
o0
o2
n-1.61
o5
o0
v0
n-0.87
n2
o2
n-1.37
o5
o0
v1
n-0.642
n2
o2
o2
o2
n-3.22
o0
v0
n-0.87
o2
o2
n-0.4237082
v0
o5
v1
n1.75
o44
o0
o2
n-1.61
o5
o0
v0
n-0.87
n2
o2
n-1.37
o5
o0
v1
n-0.642
n2
o0
v0
n-0.87
o2
n-0.4237082
o2
o2
o2
n-3.22
o0
v0
n-0.87
o44
o0
o2
n-1.61
o5
o0
v0
n-0.87
n2
o2
n-1.37
o5
o0
v1
n-0.642
n2
o5
v1
n1.75
o2
o2
n-1.3620408
o2
o44
o0
o2
n-1.24
o5
o0
v0
n-0.855
n2
o2
n-0.98
o5
o0
v1
n-0.59
n2
o5
v1
n2.11
v0
o2
n-2.48
o2
o2
o2
n-0.2270068
o5
v0
n3
o5
v1
n2.11
o44
o0
o2
n-1.24
o5
o0
v0
n-0.855
n2
o2
n-0.98
o5
o0
v1
n-0.59
n2
o2
o2
n-2.48
o0
o2
o2
o2
n-0.6810204
o5
v0
n2
o5
v1
n2.11
o44
o0
o2
n-1.24
o5
o0
v0
n-0.855
n2
o2
n-0.98
o5
o0
v1
n-0.59
n2
o2
o2
o2
n-2.48
o0
v0
n-0.855
o2
o2
n-0.2270068
o5
v0
n3
o5
v1
n2.11
o44
o0
o2
n-1.24
o5
o0
v0
n-0.855
n2
o2
n-0.98
o5
o0
v1
n-0.59
n2
o0
v0
n-0.855
o2
o2
n-0.6810204
o2
o2
o2
n-2.48
o0
v0
n-0.855
o44
o0
o2
n-1.24
o5
o0
v0
n-0.855
n2
o2
n-0.98
o5
o0
v1
n-0.59
n2
o5
v1
n2.11
o5
v0
n2
o2
o2
n-4.831277999999999
o2
o44
o0
o2
n-9.34
o5
o0
v0
n-0.79
n2
o2
n-171
o5
o0
v1
n-1.2
n2
v1
v0
o2
n-18.68
o2
o2
o2
n-0.805213
o5
v0
n3
v1
o44
o0
o2
n-9.34
o5
o0
v0
n-0.79
n2
o2
n-171
o5
o0
v1
n-1.2
n2
o2
o2
n-18.68
o0
o2
o2
o2
n-2.4156389999999996
o5
v0
n2
v1
o44
o0
o2
n-9.34
o5
o0
v0
n-0.79
n2
o2
n-171
o5
o0
v1
n-1.2
n2
o2
o2
o2
n-18.68
o0
v0
n-0.79
o2
o2
n-0.805213
o5
v0
n3
v1
o44
o0
o2
n-9.34
o5
o0
v0
n-0.79
n2
o2
n-171
o5
o0
v1
n-1.2
n2
o0
v0
n-0.79
o2
o2
n-2.4156389999999996
o2
o2
o2
n-18.68
o0
v0
n-0.79
o44
o0
o2
n-9.34
o5
o0
v0
n-0.79
n2
o2
n-171
o5
o0
v1
n-1.2
n2
v1
o5
v0
n2
o2
n0.01988636
o2
o44
o0
o2
n-5.78
o5
o0
v0
n-1.3
n2
o2
n-47.4
o5
o0
v1
n-1.33
n2
o5
v1
n1.5
o2
n-11.56
o2
o2
o2
n0.00994318
o5
v0
n2
o5
v1
n1.5
o44
o0
o2
n-5.78
o5
o0
v0
n-1.3
n2
o2
n-47.4
o5
o0
v1
n-1.33
n2
o2
o2
n-11.56
o0
o2
o2
o2
n0.01988636
v0
o5
v1
n1.5
o44
o0
o2
n-5.78
o5
o0
v0
n-1.3
n2
o2
n-47.4
o5
o0
v1
n-1.33
n2
o2
o2
o2
n-11.56
o0
v0
n-1.3
o2
o2
n0.00994318
o5
v0
n2
o5
v1
n1.5
o44
o0
o2
n-5.78
o5
o0
v0
n-1.3
n2
o2
n-47.4
o5
o0
v1
n-1.33
n2
o0
v0
n-1.3
o2
o2
n0.01988636
o2
o2
o2
n-11.56
o0
v0
n-1.3
o44
o0
o2
n-5.78
o5
o0
v0
n-1.3
n2
o2
n-47.4
o5
o0
v1
n-1.33
n2
o5
v1
n1.5
v0
o2
n-6.16
o2
o2
o2
n-0.008798793
v0
v1
o44
o0
o2
n-3.08
o5
o0
v0
n-0.71
n2
o2
n-15.4
o5
o0
v1
n-0.64
n2
o2
o2
n-6.16
o0
o2
o2
n-0.008798793
v1
o44
o0
o2
n-3.08
o5
o0
v0
n-0.71
n2
o2
n-15.4
o5
o0
v1
n-0.64
n2
o2
o2
o2
n-6.16
o0
v0
n-0.71
o2
o2
n-0.008798793
v0
v1
o44
o0
o2
n-3.08
o5
o0
v0
n-0.71
n2
o2
n-15.4
o5
o0
v1
n-0.64
n2
o0
v0
n-0.71
o2
n-0.008798793
o2
o2
o2
n-6.16
o0
v0
n-0.71
o44
o0
o2
n-3.08
o5
o0
v0
n-0.71
n2
o2
n-15.4
o5
o0
v1
n-0.64
n2
v1
O8 0
o54
22
o2
o2
n0.073789364
o5
v0
n3.0
o5
v1
n-0.56
o2
o2
n-0.661323496
o5
v0
n2.0
o5
v1
n0.24
o2
o2
n-1.91582156
v0
o5
v1
n-0.245
o2
o2
n0.404126621
v0
o5
v1
n-0.777
o2
n0.03982797
o5
v0
n4.0
o2
o2
n0.9
o2
o44
o2
n-1
v0
o2
n-0.01843846
o5
v0
n7.0
o5
v1
n-0.09999999999999998
o2
o2
n1.5
o2
o44
o16
o5
v0
n2.0
o2
n-0.7740229
o5
v0
n2.0
o5
v1
n0.5
o2
o2
n1.2
o2
o44
o2
n-1
v0
o2
n0.8072718
o5
v0
n2.0
o5
v1
n0.19999999999999996
o2
o2
n2.2
o2
o44
o16
o5
v0
n2.0
o2
n-0.6694654
o5
v0
n3.0
o5
v1
n1.2000000000000002
o2
o2
n2.0
o2
o44
o16
o5
v0
n2.0
o2
n-1.323801
v0
v1
o2
o2
n-30.8
o2
o2
o2
n-0.008798793
v0
v1
o44
o0
o2
n-3.08
o5
o0
v0
n-0.71
n2
o2
n-15.4
o5
o0
v1
n-0.64
n2
o0
v1
n-0.64
o2
o44
o0
o2
n-3.08
o5
o0
v0
n-0.71
n2
o2
n-15.4
o5
o0
v1
n-0.64
n2
o2
n-0.008798793
v0
o2
o2
n-94.8
o2
o2
o2
n0.00994318
o5
v0
n2
o5
v1
n1.5
o44
o0
o2
n-5.78
o5
o0
v0
n-1.3
n2
o2
n-47.4
o5
o0
v1
n-1.33
n2
o0
v1
n-1.33
o2
o2
n1.5
o2
o44
o0
o2
n-5.78
o5
o0
v0
n-1.3
n2
o2
n-47.4
o5
o0
v1
n-1.33
n2
o2
n0.00994318
o5
v0
n2
o5
v1
n0.5
o2
o2
n-342
o2
o2
o2
n-0.805213
o5
v0
n3
v1
o44
o0
o2
n-9.34
o5
o0
v0
n-0.79
n2
o2
n-171
o5
o0
v1
n-1.2
n2
o0
v1
n-1.2
o2
o44
o0
o2
n-9.34
o5
o0
v0
n-0.79
n2
o2
n-171
o5
o0
v1
n-1.2
n2
o2
n-0.805213
o5
v0
n3
o2
o2
n-1.96
o2
o2
o2
n-0.2270068
o5
v0
n3
o5
v1
n2.11
o44
o0
o2
n-1.24
o5
o0
v0
n-0.855
n2
o2
n-0.98
o5
o0
v1
n-0.59
n2
o0
v1
n-0.59
o2
o2
n2.11
o2
o44
o0
o2
n-1.24
o5
o0
v0
n-0.855
n2
o2
n-0.98
o5
o0
v1
n-0.59
n2
o2
n-0.2270068
o5
v0
n3
o5
v1
n1.1099999999999999
o2
o2
n-2.74
o2
o2
o2
n-0.4237082
v0
o5
v1
n1.75
o44
o0
o2
n-1.61
o5
o0
v0
n-0.87
n2
o2
n-1.37
o5
o0
v1
n-0.642
n2
o0
v1
n-0.642
o2
o2
n1.75
o2
o44
o0
o2
n-1.61
o5
o0
v0
n-0.87
n2
o2
n-1.37
o5
o0
v1
n-0.642
n2
o2
n-0.4237082
v0
o5
v1
n0.75
o2
o2
n-2.42
o2
o2
o2
n1.407916
v0
o5
v1
n1.33
o44
o0
o16
o5
o0
v0
n-0.728
n2
o2
n-1.21
o5
o0
v1
n-0.943
n2
o0
v1
n-0.943
o2
o2
n1.33
o2
o44
o0
o16
o5
o0
v0
n-0.728
n2
o2
n-1.21
o5
o0
v1
n-0.943
n2
o2
n1.407916
v0
o5
v1
n0.33000000000000007
O9 0
o54
31
o2
o2
n-0.314006384517
v0
o5
v1
n-1.7770000000000001
o2
o2
n0.4693762822
v0
o5
v1
n-1.245
o2
o2
n-0.15871763904
o5
v0
n2.0
o5
v1
n-0.76
o2
o2
n-0.04132204384
o5
v0
n3.0
o5
v1
n-1.56
o2
n2.0
o2
o44
o16
o5
v0
n2.0
o2
n-1.323801
v0
o2
o2
n2.6400000000000006
o2
o44
o16
o5
v0
n2.0
o2
n-0.6694654
o5
v0
n3.0
o5
v1
n0.20000000000000018
o2
o2
n0.23999999999999994
o2
o44
o2
n-1
v0
o2
n0.8072718
o5
v0
n2.0
o5
v1
n-0.8
o2
o2
n0.75
o2
o44
o16
o5
v0
n2.0
o2
n-0.7740229
o5
v0
n2.0
o5
v1
n-0.5
o2
o2
n-0.08999999999999998
o2
o44
o2
n-1
v0
o2
n-0.01843846
o5
v0
n7.0
o5
v1
n-1.1
o2
n-2.42
o2
o2
o2
n1.407916
v0
o5
v1
n1.33
o44
o0
o16
o5
o0
v0
n-0.728
n2
o2
n-1.21
o5
o0
v1
n-0.943
n2
o2
o2
n-2.42
o0
o2
o2
o2
n1.33
o5
v1
n0.33000000000000007
o2
n1.407916
v0
o44
o0
o16
o5
o0
v0
n-0.728
n2
o2
n-1.21
o5
o0
v1
n-0.943
n2
o2
o2
o2
n-2.42
o0
v1
n-0.943
o2
o2
n1.407916
v0
o5
v1
n1.33
o44
o0
o16
o5
o0
v0
n-0.728
n2
o2
n-1.21
o5
o0
v1
n-0.943
n2
o0
v1
n-0.943
o2
o2
n0.4389000000000001
o2
o44
o0
o16
o5
o0
v0
n-0.728
n2
o2
n-1.21
o5
o0
v1
n-0.943
n2
o2
n1.407916
v0
o5
v1
n-0.6699999999999999
o2
o2
n1.33
o2
o2
o2
n-2.42
o0
v1
n-0.943
o44
o0
o16
o5
o0
v0
n-0.728
n2
o2
n-1.21
o5
o0
v1
n-0.943
n2
o2
n1.407916
v0
o5
v1
n0.33000000000000007
o2
o2
n1.3125
o2
o44
o0
o2
n-1.61
o5
o0
v0
n-0.87
n2
o2
n-1.37
o5
o0
v1
n-0.642
n2
o2
n-0.4237082
v0
o5
v1
n-0.25
o2
n-2.74
o2
o2
o2
n-0.4237082
v0
o5
v1
n1.75
o44
o0
o2
n-1.61
o5
o0
v0
n-0.87
n2
o2
n-1.37
o5
o0
v1
n-0.642
n2
o2
o2
n-2.74
o0
o2
o2
o2
n1.75
o5
v1
n0.75
o2
n-0.4237082
v0
o44
o0
o2
n-1.61
o5
o0
v0
n-0.87
n2
o2
n-1.37
o5
o0
v1
n-0.642
n2
o2
o2
o2
n-2.74
o0
v1
n-0.642
o2
o2
n-0.4237082
v0
o5
v1
n1.75
o44
o0
o2
n-1.61
o5
o0
v0
n-0.87
n2
o2
n-1.37
o5
o0
v1
n-0.642
n2
o0
v1
n-0.642
o2
o2
n1.75
o2
o2
o2
n-2.74
o0
v1
n-0.642
o44
o0
o2
n-1.61
o5
o0
v0
n-0.87
n2
o2
n-1.37
o5
o0
v1
n-0.642
n2
o2
n-0.4237082
v0
o5
v1
n0.75
o2
o2
n2.3420999999999994
o2
o44
o0
o2
n-1.24
o5
o0
v0
n-0.855
n2
o2
n-0.98
o5
o0
v1
n-0.59
n2
o2
n-0.2270068
o5
v0
n3
o5
v1
n0.10999999999999988
o2
n-1.96
o2
o2
o2
n-0.2270068
o5
v0
n3
o5
v1
n2.11
o44
o0
o2
n-1.24
o5
o0
v0
n-0.855
n2
o2
n-0.98
o5
o0
v1
n-0.59
n2
o2
o2
n-1.96
o0
o2
o2
o2
n2.11
o5
v1
n1.1099999999999999
o2
n-0.2270068
o5
v0
n3
o44
o0
o2
n-1.24
o5
o0
v0
n-0.855
n2
o2
n-0.98
o5
o0
v1
n-0.59
n2
o2
o2
o2
n-1.96
o0
v1
n-0.59
o2
o2
n-0.2270068
o5
v0
n3
o5
v1
n2.11
o44
o0
o2
n-1.24
o5
o0
v0
n-0.855
n2
o2
n-0.98
o5
o0
v1
n-0.59
n2
o0
v1
n-0.59
o2
o2
n2.11
o2
o2
o2
n-1.96
o0
v1
n-0.59
o44
o0
o2
n-1.24
o5
o0
v0
n-0.855
n2
o2
n-0.98
o5
o0
v1
n-0.59
n2
o2
n-0.2270068
o5
v0
n3
o5
v1
n1.1099999999999999
o2
n-342
o2
o2
o2
n-0.805213
o5
v0
n3
v1
o44
o0
o2
n-9.34
o5
o0
v0
n-0.79
n2
o2
n-171
o5
o0
v1
n-1.2
n2
o2
o2
n-342
o0
o2
o2
n-0.805213
o5
v0
n3
o44
o0
o2
n-9.34
o5
o0
v0
n-0.79
n2
o2
n-171
o5
o0
v1
n-1.2
n2
o2
o2
o2
n-342
o0
v1
n-1.2
o2
o2
n-0.805213
o5
v0
n3
v1
o44
o0
o2
n-9.34
o5
o0
v0
n-0.79
n2
o2
n-171
o5
o0
v1
n-1.2
n2
o0
v1
n-1.2
o2
o2
o2
n-342
o0
v1
n-1.2
o44
o0
o2
n-9.34
o5
o0
v0
n-0.79
n2
o2
n-171
o5
o0
v1
n-1.2
n2
o2
n-0.805213
o5
v0
n3
o2
o2
n0.75
o2
o44
o0
o2
n-5.78
o5
o0
v0
n-1.3
n2
o2
n-47.4
o5
o0
v1
n-1.33
n2
o2
n0.00994318
o5
v0
n2
o5
v1
n-0.5
o2
n-94.8
o2
o2
o2
n0.00994318
o5
v0
n2
o5
v1
n1.5
o44
o0
o2
n-5.78
o5
o0
v0
n-1.3
n2
o2
n-47.4
o5
o0
v1
n-1.33
n2
o2
o2
n-94.8
o0
o2
o2
o2
n1.5
o5
v1
n0.5
o2
n0.00994318
o5
v0
n2
o44
o0
o2
n-5.78
o5
o0
v0
n-1.3
n2
o2
n-47.4
o5
o0
v1
n-1.33
n2
o2
o2
o2
n-94.8
o0
v1
n-1.33
o2
o2
n0.00994318
o5
v0
n2
o5
v1
n1.5
o44
o0
o2
n-5.78
o5
o0
v0
n-1.3
n2
o2
n-47.4
o5
o0
v1
n-1.33
n2
o0
v1
n-1.33
o2
o2
n1.5
o2
o2
o2
n-94.8
o0
v1
n-1.33
o44
o0
o2
n-5.78
o5
o0
v0
n-1.3
n2
o2
n-47.4
o5
o0
v1
n-1.33
n2
o2
n0.00994318
o5
v0
n2
o5
v1
n0.5
o2
n-30.8
o2
o2
o2
n-0.008798793
v0
v1
o44
o0
o2
n-3.08
o5
o0
v0
n-0.71
n2
o2
n-15.4
o5
o0
v1
n-0.64
n2
o2
o2
n-30.8
o0
o2
o2
n-0.008798793
v0
o44
o0
o2
n-3.08
o5
o0
v0
n-0.71
n2
o2
n-15.4
o5
o0
v1
n-0.64
n2
o2
o2
o2
n-30.8
o0
v1
n-0.64
o2
o2
n-0.008798793
v0
v1
o44
o0
o2
n-3.08
o5
o0
v0
n-0.71
n2
o2
n-15.4
o5
o0
v1
n-0.64
n2
o0
v1
n-0.64
o2
o2
o2
n-30.8
o0
v1
n-0.64
o44
o0
o2
n-3.08
o5
o0
v0
n-0.71
n2
o2
n-15.4
o5
o0
v1
n-0.64
n2
o2
n-0.008798793
v0
O10 0
o54
24
o2
n0.15931188
o5
v0
n3.0
o2
n0.404126621
o5
v1
n-0.777
o2
n-1.91582156
o5
v1
n-0.245
o2
o2
n-1.322646992
v0
o5
v1
n0.24
o2
o2
n0.221368092
o5
v0
n2.0
o5
v1
n-0.56
o2
o2
n2.0
o0
o2
n-1.323801
o44
o16
o5
v0
n2.0
o2
o2
o2
n-2.0
v0
o44
o16
o5
v0
n2.0
o2
n-1.323801
v0
v1
o2
o2
n2.2
o0
o2
o2
n-2.0083962
o5
v0
n2.0
o44
o16
o5
v0
n2.0
o2
o2
o2
n-2.0
v0
o44
o16
o5
v0
n2.0
o2
n-0.6694654
o5
v0
n3.0
o5
v1
n1.2000000000000002
o2
o2
n1.2
o0
o2
o2
n1.6145436
v0
o44
o2
n-1
v0
o2
o16
o44
o2
n-1
v0
o2
n0.8072718
o5
v0
n2.0
o5
v1
n0.19999999999999996
o2
o2
n1.5
o0
o2
o2
n-1.5480458
v0
o44
o16
o5
v0
n2.0
o2
o2
o2
n-2.0
v0
o44
o16
o5
v0
n2.0
o2
n-0.7740229
o5
v0
n2.0
o5
v1
n0.5
o2
o2
n0.9
o0
o2
o2
n-0.12906922
o5
v0
n6.0
o44
o2
n-1
v0
o2
o16
o44
o2
n-1
v0
o2
n-0.01843846
o5
v0
n7.0
o5
v1
n-0.09999999999999998
o2
o2
n-2.42
o0
o2
o2
n1.407916
o5
v1
n1.33
o44
o0
o16
o5
o0
v0
n-0.728
n2
o2
n-1.21
o5
o0
v1
n-0.943
n2
o2
o2
o2
n-2.0
o0
v0
n-0.728
o2
o2
n1.407916
v0
o5
v1
n1.33
o44
o0
o16
o5
o0
v0
n-0.728
n2
o2
n-1.21
o5
o0
v1
n-0.943
n2
o0
v1
n-0.943
o2
o2
n1.33
o0
o2
n1.407916
o44
o0
o16
o5
o0
v0
n-0.728
n2
o2
n-1.21
o5
o0
v1
n-0.943
n2
o2
o2
o2
n-2.0
o0
v0
n-0.728
o44
o0
o16
o5
o0
v0
n-0.728
n2
o2
n-1.21
o5
o0
v1
n-0.943
n2
o2
n1.407916
v0
o5
v1
n0.33000000000000007
o2
o2
n-2.74
o0
o2
o2
n-0.4237082
o5
v1
n1.75
o44
o0
o2
n-1.61
o5
o0
v0
n-0.87
n2
o2
n-1.37
o5
o0
v1
n-0.642
n2
o2
o2
o2
n-3.22
o0
v0
n-0.87
o2
o2
n-0.4237082
v0
o5
v1
n1.75
o44
o0
o2
n-1.61
o5
o0
v0
n-0.87
n2
o2
n-1.37
o5
o0
v1
n-0.642
n2
o0
v1
n-0.642
o2
o2
n1.75
o0
o2
n-0.4237082
o44
o0
o2
n-1.61
o5
o0
v0
n-0.87
n2
o2
n-1.37
o5
o0
v1
n-0.642
n2
o2
o2
o2
n-3.22
o0
v0
n-0.87
o44
o0
o2
n-1.61
o5
o0
v0
n-0.87
n2
o2
n-1.37
o5
o0
v1
n-0.642
n2
o2
n-0.4237082
v0
o5
v1
n0.75
o2
o2
n-1.96
o0
o2
o2
o2
n-0.6810204
o5
v0
n2
o5
v1
n2.11
o44
o0
o2
n-1.24
o5
o0
v0
n-0.855
n2
o2
n-0.98
o5
o0
v1
n-0.59
n2
o2
o2
o2
n-2.48
o0
v0
n-0.855
o2
o2
n-0.2270068
o5
v0
n3
o5
v1
n2.11
o44
o0
o2
n-1.24
o5
o0
v0
n-0.855
n2
o2
n-0.98
o5
o0
v1
n-0.59
n2
o0
v1
n-0.59
o2
o2
n2.11
o0
o2
o2
n-0.6810204
o5
v0
n2
o44
o0
o2
n-1.24
o5
o0
v0
n-0.855
n2
o2
n-0.98
o5
o0
v1
n-0.59
n2
o2
o2
o2
n-2.48
o0
v0
n-0.855
o44
o0
o2
n-1.24
o5
o0
v0
n-0.855
n2
o2
n-0.98
o5
o0
v1
n-0.59
n2
o2
n-0.2270068
o5
v0
n3
o5
v1
n1.1099999999999999
o2
o2
n-2.4156389999999996
o5
v0
n2
o44
o0
o2
n-9.34
o5
o0
v0
n-0.79
n2
o2
n-171
o5
o0
v1
n-1.2
n2
o2
o2
n-342
o0
o2
o2
o2
n-2.4156389999999996
o5
v0
n2
v1
o44
o0
o2
n-9.34
o5
o0
v0
n-0.79
n2
o2
n-171
o5
o0
v1
n-1.2
n2
o2
o2
o2
n-18.68
o0
v0
n-0.79
o2
o2
n-0.805213
o5
v0
n3
v1
o44
o0
o2
n-9.34
o5
o0
v0
n-0.79
n2
o2
n-171
o5
o0
v1
n-1.2
n2
o0
v1
n-1.2
o2
o2
o2
n-18.68
o0
v0
n-0.79
o44
o0
o2
n-9.34
o5
o0
v0
n-0.79
n2
o2
n-171
o5
o0
v1
n-1.2
n2
o2
n-0.805213
o5
v0
n3
o2
o2
n-94.8
o0
o2
o2
o2
n0.01988636
v0
o5
v1
n1.5
o44
o0
o2
n-5.78
o5
o0
v0
n-1.3
n2
o2
n-47.4
o5
o0
v1
n-1.33
n2
o2
o2
o2
n-11.56
o0
v0
n-1.3
o2
o2
n0.00994318
o5
v0
n2
o5
v1
n1.5
o44
o0
o2
n-5.78
o5
o0
v0
n-1.3
n2
o2
n-47.4
o5
o0
v1
n-1.33
n2
o0
v1
n-1.33
o2
o2
n1.5
o0
o2
o2
n0.01988636
v0
o44
o0
o2
n-5.78
o5
o0
v0
n-1.3
n2
o2
n-47.4
o5
o0
v1
n-1.33
n2
o2
o2
o2
n-11.56
o0
v0
n-1.3
o44
o0
o2
n-5.78
o5
o0
v0
n-1.3
n2
o2
n-47.4
o5
o0
v1
n-1.33
n2
o2
n0.00994318
o5
v0
n2
o5
v1
n0.5
o2
n-0.008798793
o44
o0
o2
n-3.08
o5
o0
v0
n-0.71
n2
o2
n-15.4
o5
o0
v1
n-0.64
n2
o2
o2
n-30.8
o0
o2
o2
n-0.008798793
v1
o44
o0
o2
n-3.08
o5
o0
v0
n-0.71
n2
o2
n-15.4
o5
o0
v1
n-0.64
n2
o2
o2
o2
n-6.16
o0
v0
n-0.71
o2
o2
n-0.008798793
v0
v1
o44
o0
o2
n-3.08
o5
o0
v0
n-0.71
n2
o2
n-15.4
o5
o0
v1
n-0.64
n2
o0
v1
n-0.64
o2
o2
o2
n-6.16
o0
v0
n-0.71
o44
o0
o2
n-3.08
o5
o0
v0
n-0.71
n2
o2
n-15.4
o5
o0
v1
n-0.64
n2
o2
n-0.008798793
v0
O11 0
o0
o54
4
o2
n1.1913
o5
o0
o16
o3
n1
v1
n1
n0.27
o2
n2.2456
o5
o0
o16
o3
n1
v1
n1
n0.7
o2
n-1.7747
o5
o0
o16
o3
n1
v1
n1
n1.25
o2
n1.3096
o5
o0
o16
o3
n1
v1
n1
n1.9
n1.0
O12 0
o44
o54
5
o2
n-1.0308
o5
o0
o16
o3
n1
v1
n1
n0.24
o2
n-5.0422
o5
o0
o16
o3
n1
v1
n1
n0.72
o2
n-11.5
o5
o0
o16
o3
n1
v1
n1
n2.1
o2
n-37.499
o5
o0
o16
o3
n1
v1
n1
n4.8
o2
n-77.945
o5
o0
o16
o3
n1
v1
n1
n9.5
O13 0
n0.0
x2
0 1.00000001
1 1.0
r
b
3
3
k1
0
G0 2
0 0
1 8.79132625741231
G1 1
0 0
G2 1
0 0
G3 1
1 0
G4 1
1 0
G5 2
0 0
1 0
G6 2
0 0
1 0
G7 2
0 0
1 0
G8 2
0 0
1 0
G9 2
0 0
1 0
G10 2
0 0
1 0
G11 1
1 0
G12 1
1 0
